data/solutions/recovery/wellformed/intermediate/binding/wellformed_intermediate_instance84/30.sol
Elapsed time: 100.48
Upper bound: 156881.0
Planning weighted value: 8309940110.0
C[0]=156881.0
C[1]=156881.0
C[2]=156868.0
C[3]=156825.0
C[4]=156825.0
C[5]=156807.0
C[6]=156803.0
C[7]=156764.0
C[8]=156747.0
C[9]=156738.0
C[10]=156735.0
C[11]=156691.0
C[12]=156680.0
C[13]=156673.0
C[14]=0.0
C[15]=0.0
y[0]=0
y[1]=5
y[2]=10
y[3]=3
y[4]=9
y[5]=1
y[6]=11
y[7]=2
y[8]=4
y[9]=8
y[10]=10
y[11]=8
y[12]=12
y[13]=12
y[14]=8
y[15]=6
y[16]=13
y[17]=6
y[18]=7
y[19]=6
y[20]=12
y[21]=1
y[22]=2
y[23]=10
y[24]=10
y[25]=11
y[26]=7
y[27]=1
y[28]=12
y[29]=1
y[30]=10
y[31]=4
y[32]=5
y[33]=5
y[34]=12
y[35]=8
y[36]=0
y[37]=6
y[38]=7
y[39]=11
y[40]=0
y[41]=3
y[42]=9
y[43]=10
y[44]=10
y[45]=10
y[46]=4
y[47]=1
y[48]=0
y[49]=9
y[50]=4
y[51]=1
y[52]=11
y[53]=7
y[54]=11
y[55]=11
y[56]=5
y[57]=8
y[58]=2
y[59]=5
y[60]=2
y[61]=10
y[62]=5
y[63]=13
y[64]=9
y[65]=7
y[66]=3
y[67]=5
y[68]=3
y[69]=9
y[70]=0
y[71]=9
y[72]=7
y[73]=7
y[74]=5
y[75]=2
y[76]=0
y[77]=12
y[78]=4
y[79]=9
y[80]=13
y[81]=11
y[82]=4
y[83]=9
y[84]=11
y[85]=5
y[86]=10
y[87]=1
y[88]=13
y[89]=6
y[90]=1
y[91]=0
y[92]=1
y[93]=1
y[94]=7
y[95]=6
y[96]=12
y[97]=2
y[98]=13
y[99]=6
y[100]=2
y[101]=1
y[102]=12
y[103]=10
y[104]=12
y[105]=12
y[106]=6
y[107]=9
y[108]=12
y[109]=5
y[110]=9
y[111]=1
y[112]=9
y[113]=0
y[114]=3
y[115]=10
y[116]=9
y[117]=8
y[118]=10
y[119]=4
y[120]=10
y[121]=8
y[122]=2
y[123]=6
y[124]=9
y[125]=13
y[126]=4
y[127]=5
y[128]=7
y[129]=3
y[130]=6
y[131]=1
y[132]=11
y[133]=9
y[134]=5
y[135]=6
y[136]=8
y[137]=1
y[138]=5
y[139]=8
y[140]=5
y[141]=11
y[142]=0
y[143]=9
y[144]=10
y[145]=13
y[146]=2
y[147]=12
y[148]=3
y[149]=4
y[150]=0
y[151]=5
y[152]=1
y[153]=10
y[154]=8
y[155]=9
y[156]=9
y[157]=9
y[158]=9
y[159]=1
y[160]=0
y[161]=2
y[162]=2
y[163]=9
y[164]=9
y[165]=2
y[166]=1
y[167]=0
y[168]=0
y[169]=11
y[170]=8
y[171]=0
y[172]=8
y[173]=9
y[174]=12
y[175]=2
y[176]=12
y[177]=1
y[178]=11
y[179]=2
y[180]=3
y[181]=2
y[182]=9
y[183]=13
y[184]=0
y[185]=3
y[186]=0
y[187]=4
y[188]=6
y[189]=13
y[190]=10
y[191]=13
y[192]=8
y[193]=13
y[194]=3
y[195]=10
y[196]=1
y[197]=1
y[198]=0
y[199]=11
y[200]=3
y[201]=1
y[202]=8
y[203]=6
y[204]=5
y[205]=11
y[206]=4
y[207]=6
y[208]=11
y[209]=4
y[210]=7
y[211]=12
y[212]=7
y[213]=9
