data/solutions/recovery/wellformed/intermediate/binding/wellformed_intermediate_instance84/30.log

Log started (V12.6.3.0) Fri Apr 20 20:56:33 2018

New value for default parallel thread count: 1

Problem '/tmp/tmpb0BF4G.pyomo.lp' read.
Read time = 0.08 sec. (7.37 ticks)

Problem name         : /tmp/tmpb0BF4G.pyomo.lp
Objective sense      : Minimize
Variables            :    3442  [Nneg: 1,  Binary: 3424,  General Integer: 17]
Objective nonzeros   :       1
Linear constraints   :     463  [Less: 230,  Equal: 233]
  Nonzeros           :  543267
  RHS nonzeros       :     215

Variables            : Min LB: 0.000000         Max UB: 1.000000       
Objective nonzeros   : Min   : 1.000000         Max   : 1.000000       
Linear constraints   :
  Nonzeros           : Min   : 1.000000         Max   : 19973.00       
  RHS nonzeros       : Min   : 1.000000         Max   : 1.000000       
Tried aggregator 2 times.
MIP Presolve eliminated 389 rows and 2783 columns.
Aggregator did 14 substitutions.
Reduced MIP has 60 rows, 645 columns, and 1302 nonzeros.
Reduced MIP has 644 binaries, 1 generals, 0 SOSs, and 0 indicators.
Presolve time = 0.02 sec. (34.82 ticks)
Found incumbent of value 572382.000000 after 0.04 sec. (47.67 ticks)
Probing time = 0.00 sec. (0.78 ticks)
Tried aggregator 1 time.
Reduced MIP has 60 rows, 645 columns, and 1302 nonzeros.
Reduced MIP has 644 binaries, 1 generals, 0 SOSs, and 0 indicators.
Presolve time = 0.00 sec. (0.97 ticks)
Probing time = 0.00 sec. (0.78 ticks)
Clique table members: 46.
MIP emphasis: balance optimality and feasibility.
MIP search method: dynamic search.
Parallel mode: none, using 1 thread.
Root relaxation solution time = 0.00 sec. (1.15 ticks)

        Nodes                                         Cuts/
   Node  Left     Objective  IInf  Best Integer    Best Bound    ItCnt     Gap

*     0+    0                       572382.0000   151436.0000            73.54%
      0     0   156779.8571    26   572382.0000   156779.8571       75   72.61%
*     0+    0                       165118.0000   156779.8571             5.05%
      0     0   156780.0000    30   165118.0000      Cuts: 12      121    5.05%
      0     0   156780.0000    35   165118.0000      Cuts: 28      177    5.05%
*     0+    0                       164288.0000   156780.0000             4.57%
*     0+    0                       163206.0000   156780.0000             3.94%
*     0+    0                       162063.0000   156780.0000             3.26%
      0     2   156780.0000    19   162063.0000   156780.0000      177    3.26%
Elapsed time = 0.08 sec. (90.04 ticks, tree = 0.01 MB, solutions = 5)
*    10+   10                       161678.0000   156780.0000             3.03%
*    20+   18                       161427.0000   156780.0000             2.88%
*    50+   48                       161101.0000   156780.0000             2.68%
*    50+   48                       161098.0000   156780.0000             2.68%
*    60+   54                       160824.0000   156780.0000             2.51%
*   100+   90                       159925.0000   156780.0000             1.97%
*   130+  114                       159335.0000   156780.0000             1.60%
*   130+  112                       159041.0000   156780.0000             1.42%
*   150+  124                       158687.0000   156780.0000             1.20%
*   160+  128                       158663.0000   156780.0000             1.19%
*   170+  133                       158052.0000   156780.0000             0.80%
*   210+  168                       157776.0000   156780.0000             0.63%
*   260+  218                       157745.0000   156780.0000             0.61%
*   270+  227                       157538.0000   156780.0000             0.48%
*   370+  310                       157418.0000   156780.0000             0.41%
*   380+  320                       157414.0000   156780.0000             0.40%
*   390+  325                       157299.0000   156780.0000             0.33%
*   400+  333                       157288.0000   156780.0000             0.32%
*   420+  353                       157265.0000   156780.0000             0.31%
*   430+  361                       157257.0000   156780.0000             0.30%
*   460+  387                       157174.0000   156780.0000             0.25%
*   470+  394                       157133.0000   156780.0000             0.22%
*   570+  488                       157112.0000   156780.0000             0.21%
*   682+  595                       157025.0000   156780.0000             0.16%
    682   597   156780.0000    21   157025.0000   156780.0000     2536    0.16%
    683   598   156780.0000    22   157025.0000   156780.0000     3002    0.16%
    684   599   156780.0000    23   157025.0000   156780.0000     3006    0.16%
    685   600   156780.0000    26   157025.0000   156780.0000     3020    0.16%
    686   601   156780.0000    27   157025.0000   156780.0000     3028    0.16%
    687   602   156780.0000    27   157025.0000   156780.0000     3032    0.16%
    688   603   156780.0000    24   157025.0000   156780.0000     3043    0.16%
    689   604   156780.0000    26   157025.0000   156780.0000     3046    0.16%
    690   604   156780.0000    26   157025.0000   156780.0000     3048    0.16%
    983   642   156873.0000    19   157025.0000   156780.0000     4411    0.16%
Elapsed time = 0.97 sec. (1151.31 ticks, tree = 0.86 MB, solutions = 29)
   4911  3452   156825.0000    19   157025.0000   156780.0000    16748    0.16%
   4912  3453   156825.0000    19   157025.0000   156780.0000    16749    0.16%
   4913  3454   156825.0000    20   157025.0000   156780.0000    16752    0.16%
   4914  3455   156825.0000    19   157025.0000   156780.0000    16753    0.16%
   4915  3456   156825.0000    19   157025.0000   156780.0000    16754    0.16%
   4916  3457   156840.7778    17   157025.0000   156780.0000    16757    0.16%
   4917  3458   156840.7778    17   157025.0000   156780.0000    16758    0.16%
   4918  3459   156840.7778    18   157025.0000   156780.0000    16759    0.16%
   4919  3460   156840.7778    18   157025.0000   156780.0000    16760    0.16%
   4920  3461   156840.7778    18   157025.0000   156780.0000    16762    0.16%
Elapsed time = 1.73 sec. (2108.53 ticks, tree = 4.68 MB, solutions = 29)
  10966  7954   156825.0000    20   157025.0000   156780.0000    35243    0.16%
  10967  7953        cutoff         157025.0000   156780.0000    35251    0.16%
  10968  7954   156825.0000    20   157025.0000   156780.0000    35252    0.16%
  10969  7955   156825.0000    16   157025.0000   156780.0000    35254    0.16%
  10970  7956   156881.3333    16   157025.0000   156780.0000    35269    0.16%
  10971  7957   156881.3333    16   157025.0000   156780.0000    35270    0.16%
  10972  7958   156881.3333    16   157025.0000   156780.0000    35271    0.16%
  10973  7959   156881.3333    16   157025.0000   156780.0000    35272    0.16%
  10974  7960   156881.3333    15   157025.0000   156780.0000    35274    0.16%
  10975  7960   156881.3333    16   157025.0000   156780.0000    35277    0.16%
Elapsed time = 2.64 sec. (3063.30 ticks, tree = 10.77 MB, solutions = 29)
  17192 12964   156780.0000    26   157025.0000   156780.0000    54220    0.16%
  17193 12963        cutoff         157025.0000   156780.0000    54229    0.16%
  17194 12962    infeasible         157025.0000   156780.0000    54229    0.16%
  17195 12961        cutoff         157025.0000   156780.0000    54235    0.16%
  17196 12960        cutoff         157025.0000   156780.0000    54259    0.16%
  17197 12961   156780.0000    26   157025.0000   156780.0000    54266    0.16%
  17198 12962   156780.0000    25   157025.0000   156780.0000    54274    0.16%
  17199 12963   156780.0000    24   157025.0000   156780.0000    54281    0.16%
  17200 12964   156780.0000    24   157025.0000   156780.0000    54282    0.16%
  17201 12965   156780.0000    24   157025.0000   156780.0000    54291    0.16%
Elapsed time = 3.57 sec. (4020.09 ticks, tree = 17.61 MB, solutions = 29)
* 22187 16406      integral     0   157023.0000   156780.0000    70934    0.15%
* 22188 16226      integral     0   157018.0000   156780.0000    70935    0.15%
  23520 17267   156849.0000    18   157018.0000   156780.0000    75295    0.15%
  23521 17268   156849.0000    18   157018.0000   156780.0000    75296    0.15%
  23522 17269   156849.0000    18   157018.0000   156780.0000    75300    0.15%
  23523 17270   156849.0000    17   157018.0000   156780.0000    75304    0.15%
  23524 17271   156849.0000    17   157018.0000   156780.0000    75307    0.15%
  23525 17270    infeasible         157018.0000   156780.0000    75307    0.15%
  23526 17271   156849.0000    17   157018.0000   156780.0000    75308    0.15%
  23527 17272   156849.0000    17   157018.0000   156780.0000    75309    0.15%
  23528 17273   156849.0000    18   157018.0000   156780.0000    75314    0.15%
  23529 17274   156849.0000    19   157018.0000   156780.0000    75318    0.15%
Elapsed time = 4.49 sec. (4974.60 ticks, tree = 23.90 MB, solutions = 31)
  30649 22799   156804.2222    18   157018.0000   156780.0000    93551    0.15%
  30650 22800   156804.2222    19   157018.0000   156780.0000    93553    0.15%
  30651 22801   156804.2222    19   157018.0000   156780.0000    93554    0.15%
  30652 22802   156804.2222    19   157018.0000   156780.0000    93555    0.15%
  30653 22803   156804.2222    18   157018.0000   156780.0000    93556    0.15%
  30654 22804   156804.2222    18   157018.0000   156780.0000    93557    0.15%
  30655 22805   156804.2222    18   157018.0000   156780.0000    93558    0.15%
  30656 22806   156804.2222    17   157018.0000   156780.0000    93559    0.15%
  30657 22807   156804.2222    17   157018.0000   156780.0000    93560    0.15%
  30658 22808   156804.2222    17   157018.0000   156780.0000    93561    0.15%
Elapsed time = 5.38 sec. (5929.57 ticks, tree = 31.42 MB, solutions = 31)
  38609 28453   156964.8000     9   157018.0000   156780.0000   112328    0.15%
  38610 28454   156964.8000     9   157018.0000   156780.0000   112330    0.15%
  38611 28455   156964.8000     9   157018.0000   156780.0000   112331    0.15%
  38612 28456   156964.8000     9   157018.0000   156780.0000   112332    0.15%
  38613 28455        cutoff         157018.0000   156780.0000   112333    0.15%
  38614 28455   156964.8000     9   157018.0000   156780.0000   112338    0.15%
  38615 28454        cutoff         157018.0000   156780.0000   112339    0.15%
  38616 28455   156798.4000    19   157018.0000   156780.0000   112354    0.15%
  38617 28456   156798.4000    21   157018.0000   156780.0000   112356    0.15%
  38618 28457   156798.4000    19   157018.0000   156780.0000   112357    0.15%
Elapsed time = 6.27 sec. (6884.65 ticks, tree = 39.30 MB, solutions = 31)
  45524 33904        cutoff         157018.0000   156780.0000   132437    0.15%
  45525 33905   156995.0000    14   157018.0000   156780.0000   132438    0.15%
  45526 33906   156995.0000    15   157018.0000   156780.0000   132444    0.15%
  45527 33905        cutoff         157018.0000   156780.0000   132445    0.15%
  45528 33906   156995.0000    12   157018.0000   156780.0000   132448    0.15%
  45529 33907   156995.0000    13   157018.0000   156780.0000   132454    0.15%
  45530 33908   156995.0000    13   157018.0000   156780.0000   132455    0.15%
  45531 33907        cutoff         157018.0000   156780.0000   132456    0.15%
  45532 33908   156995.0000    13   157018.0000   156780.0000   132459    0.15%
  45533 33908   156995.0000    13   157018.0000   156780.0000   132460    0.15%
Elapsed time = 7.12 sec. (7839.72 ticks, tree = 48.01 MB, solutions = 31)
  53577 40446   156824.7500    21   157018.0000   156780.0000   155694    0.15%
  53578 40447   156824.7500    21   157018.0000   156780.0000   155695    0.15%
  53579 40448   156824.7500    21   157018.0000   156780.0000   155697    0.15%
  53580 40449   156824.7500    21   157018.0000   156780.0000   155698    0.15%
  53581 40450   156824.7500    20   157018.0000   156780.0000   155701    0.15%
  53582 40451   156824.7500    19   157018.0000   156780.0000   155707    0.15%
  53583 40452   156824.7500    19   157018.0000   156780.0000   155708    0.15%
  53584 40453   156824.7500    20   157018.0000   156780.0000   155714    0.15%
  53585 40454   156824.7500    20   157018.0000   156780.0000   155716    0.15%
  53586 40455   156824.7500    21   157018.0000   156780.0000   155721    0.15%
Elapsed time = 7.98 sec. (8794.76 ticks, tree = 57.36 MB, solutions = 31)
* 60402 43085      integral     0   157003.0000   156780.0000   182893    0.14%
  60938 43423   156830.2727    18   157003.0000   156780.0000   185905    0.14%
  60939 43424   156830.2727    18   157003.0000   156780.0000   185909    0.14%
  60940 43425   156830.2727    20   157003.0000   156780.0000   185913    0.14%
  60941 43426   156830.2727    20   157003.0000   156780.0000   185914    0.14%
  60942 43427   156830.2727    19   157003.0000   156780.0000   185917    0.14%
  60943 43428   156830.2727    21   157003.0000   156780.0000   185924    0.14%
  60944 43429   156830.2727    21   157003.0000   156780.0000   185925    0.14%
  60945 43430   156830.2727    21   157003.0000   156780.0000   185926    0.14%
  60946 43431   156830.2727    22   157003.0000   156780.0000   185927    0.14%
* 75843 53075      integral     0   156993.0000   156780.0000   252693    0.14%
* 75943+51848                       156984.0000   156780.0000             0.13%
  79348 54670   156780.0000    28   156984.0000   156780.0000   268033    0.13%
Elapsed time = 11.51 sec. (12609.71 ticks, tree = 84.03 MB, solutions = 34)
* 82744 54620      integral     0   156964.0000   156780.0000   282611    0.12%
* 94080 59787      integral     0   156957.0000   156780.0000   340993    0.11%
 103517 66567        cutoff         156957.0000   156780.0000   384864    0.11%
 103518 66566        cutoff         156957.0000   156780.0000   384872    0.11%
 103519 66565    infeasible         156957.0000   156780.0000   384872    0.11%
 103520 66564    infeasible         156957.0000   156780.0000   384872    0.11%
 103521 66563    infeasible         156957.0000   156780.0000   384872    0.11%
 103522 66562    infeasible         156957.0000   156780.0000   384872    0.11%
 103523 66561    infeasible         156957.0000   156780.0000   384872    0.11%
 103524 66560    infeasible         156957.0000   156780.0000   384872    0.11%
 103525 66559    infeasible         156957.0000   156780.0000   384872    0.11%
 103526 66558        cutoff         156957.0000   156780.0000   384889    0.11%
Elapsed time = 16.51 sec. (16425.72 ticks, tree = 111.53 MB, solutions = 36)
*119313 76189      integral     0   156951.0000   156780.0000   489914    0.11%
*119413+69296                       156923.0000   156780.0000             0.09%
 121653 70801        cutoff         156923.0000   156780.0000   507949    0.09%
 121654 70802   156780.0000    22   156923.0000   156780.0000   507962    0.09%
 121655 70803   156780.0000    27   156923.0000   156780.0000   507985    0.09%
 121656 70804   156780.0000    25   156923.0000   156780.0000   507986    0.09%
 121657 70805   156780.0000    24   156923.0000   156780.0000   507996    0.09%
 121658 70806   156780.0000    23   156923.0000   156780.0000   508000    0.09%
 121659 70807   156780.0000    24   156923.0000   156780.0000   508002    0.09%
 121660 70808   156780.0000    22   156923.0000   156780.0000   508010    0.09%
 121661 70809   156780.0000    23   156923.0000   156780.0000   508017    0.09%
 121662 70810   156780.0000    24   156923.0000   156780.0000   508018    0.09%
Elapsed time = 21.48 sec. (20243.51 ticks, tree = 124.06 MB, solutions = 38)
 138474 81705   156856.2709    23   156923.0000   156780.0000   632757    0.09%
 138475 81706   156856.2709    22   156923.0000   156780.0000   632764    0.09%
 138476 81707   156858.2263    19   156923.0000   156780.0000   632772    0.09%
 138477 81708   156858.2263    19   156923.0000   156780.0000   632777    0.09%
 138478 81709   156894.1466    16   156923.0000   156780.0000   632782    0.09%
 138479 81708        cutoff         156923.0000   156780.0000   632787    0.09%
 138480 81707    infeasible         156923.0000   156780.0000   632787    0.09%
 138481 81708   156795.7500    21   156923.0000   156780.0000   632803    0.09%
 138482 81709   156795.7500    21   156923.0000   156780.0000   632815    0.09%
 138483 81710   156795.7500    21   156923.0000   156780.0000   632821    0.09%
Elapsed time = 26.42 sec. (24061.46 ticks, tree = 147.43 MB, solutions = 38)
 156759 93498        cutoff         156923.0000   156780.0000   752637    0.09%
 156760 93499   156906.0000    14   156923.0000   156780.0000   752642    0.09%
 156761 93500   156906.0000    12   156923.0000   156780.0000   752643    0.09%
 156762 93501   156906.0000    11   156923.0000   156780.0000   752644    0.09%
 156763 93502   156906.0000    10   156923.0000   156780.0000   752649    0.09%
 156764 93503   156906.0000    11   156923.0000   156780.0000   752650    0.09%
 156765 93504   156906.0000    12   156923.0000   156780.0000   752657    0.09%
 156766 93505   156906.0000    11   156923.0000   156780.0000   752668    0.09%
 156767 93506   156906.0000    14   156923.0000   156780.0000   752671    0.09%
 156768 93507   156906.0000    12   156923.0000   156780.0000   752675    0.09%
Elapsed time = 31.17 sec. (27877.85 ticks, tree = 173.75 MB, solutions = 38)
*164357 95154      integral     0   156908.0000   156780.0000   806389    0.08%
*168372 88588      integral     0   156906.0000   156780.0000   845026    0.08%
 171059 89956        cutoff         156906.0000   156780.0000   878588    0.08%
 171060 89955    infeasible         156906.0000   156780.0000   878588    0.08%
 171061 89954    infeasible         156906.0000   156780.0000   878588    0.08%
 171062 89955   156780.0000    32   156906.0000   156780.0000   878655    0.08%
 171063 89956   156792.1686    30   156906.0000   156780.0000   878674    0.08%
 171064 89957   156792.1686    30   156906.0000   156780.0000   878675    0.08%
 171065 89958   156792.1686    29   156906.0000   156780.0000   878678    0.08%
 171066 89959   156798.3333    24   156906.0000   156780.0000   878691    0.08%
 171067 89960   156798.3333    24   156906.0000   156780.0000   878695    0.08%
 171068 89961   156798.3333    23   156906.0000   156780.0000   878697    0.08%
Elapsed time = 35.87 sec. (31698.80 ticks, tree = 171.11 MB, solutions = 40)
 184053 98755        cutoff         156906.0000   156780.0000   996811    0.08%
 184054 98754    infeasible         156906.0000   156780.0000   996811    0.08%
 184055 98753    infeasible         156906.0000   156780.0000   996811    0.08%
 184056 98752        cutoff         156906.0000   156780.0000   996893    0.08%
 184057 98751        cutoff         156906.0000   156780.0000   996943    0.08%
 184058 98752   156780.0000    30   156906.0000   156780.0000   997016    0.08%
 184059 98753   156799.5000    22   156906.0000   156780.0000   997039    0.08%
 184060 98754   156799.5000    22   156906.0000   156780.0000   997040    0.08%
 184061 98755   156799.5000    21   156906.0000   156780.0000   997049    0.08%
 184062 98756   156799.5000    20   156906.0000   156780.0000   997065    0.08%
Elapsed time = 40.45 sec. (35523.71 ticks, tree = 199.29 MB, solutions = 40)
 198970 109949   156780.0000    21   156906.0000   156780.0000  1100783    0.08%
 198971 109950   156803.9231    21   156906.0000   156780.0000  1100792    0.08%
 198972 109951   156803.9231    21   156906.0000   156780.0000  1100793    0.08%
 198973 109952   156803.9231    20   156906.0000   156780.0000  1100794    0.08%
 198974 109953   156803.9231    22   156906.0000   156780.0000  1100798    0.08%
 198975 109954   156803.9231    24   156906.0000   156780.0000  1100800    0.08%
 198976 109955   156807.0000    19   156906.0000   156780.0000  1100801    0.08%
 198977 109954        cutoff         156906.0000   156780.0000  1100813    0.08%
 198978 109955   156807.0000    18   156906.0000   156780.0000  1100815    0.08%
 198979 109956   156807.0000    25   156906.0000   156780.0000  1100830    0.08%
Elapsed time = 44.96 sec. (39342.29 ticks, tree = 236.54 MB, solutions = 40)
 215443 121710   156896.0000    18   156906.0000   156780.0000  1204518    0.08%
 215444 121711   156896.0000    18   156906.0000   156780.0000  1204520    0.08%
 215445 121712   156896.0000    18   156906.0000   156780.0000  1204521    0.08%
 215446 121713   156896.0000    21   156906.0000   156780.0000  1204541    0.08%
 215447 121714   156896.0000    21   156906.0000   156780.0000  1204545    0.08%
 215448 121715   156896.0000    21   156906.0000   156780.0000  1204552    0.08%
 215449 121716   156896.0000    19   156906.0000   156780.0000  1204556    0.08%
 215450 121717   156896.0000    16   156906.0000   156780.0000  1204560    0.08%
 215451 121718   156896.0000    14   156906.0000   156780.0000  1204570    0.08%
 215452 121719   156896.0000    14   156906.0000   156780.0000  1204572    0.08%
Elapsed time = 49.42 sec. (43158.37 ticks, tree = 275.90 MB, solutions = 40)
 230683 132885   156780.0000    25   156906.0000   156780.0000  1307960    0.08%
 230684 132886   156780.0000    25   156906.0000   156780.0000  1307962    0.08%
 230685 132887   156780.0000    27   156906.0000   156780.0000  1307972    0.08%
 230686 132888   156780.0000    27   156906.0000   156780.0000  1307974    0.08%
 230687 132889   156780.0000    27   156906.0000   156780.0000  1307976    0.08%
 230688 132890   156780.0000    29   156906.0000   156780.0000  1307979    0.08%
 230689 132891   156780.0000    29   156906.0000   156780.0000  1307980    0.08%
 230690 132892   156780.0000    29   156906.0000   156780.0000  1307993    0.08%
 230691 132893   156780.0000    29   156906.0000   156780.0000  1307994    0.08%
 230692 132894   156780.0000    30   156906.0000   156780.0000  1307996    0.08%
Elapsed time = 52.48 sec. (47010.48 ticks, tree = 315.65 MB, solutions = 40)
 243124 141508   156807.0372    28   156906.0000   156780.0000  1427687    0.08%
 243125 141509   156807.0372    29   156906.0000   156780.0000  1427688    0.08%
 243126 141508    infeasible         156906.0000   156780.0000  1427691    0.08%
 243127 141509   156807.0646    33   156906.0000   156780.0000  1427693    0.08%
 243128 141510   156807.1324    25   156906.0000   156780.0000  1427695    0.08%
 243129 141511   156807.1324    25   156906.0000   156780.0000  1427696    0.08%
 243130 141512   156815.8571    17   156906.0000   156780.0000  1427702    0.08%
 243131 141513   156832.2194    23   156906.0000   156780.0000  1427711    0.08%
 243132 141514   156832.2194    24   156906.0000   156780.0000  1427721    0.08%
 243133 141515   156832.2194    24   156906.0000   156780.0000  1427727    0.08%
Elapsed time = 55.46 sec. (50827.35 ticks, tree = 347.44 MB, solutions = 40)
 253031 148322   156821.5385    24   156906.0000   156780.0000  1533814    0.08%
 253032 148323   156821.5385    35   156906.0000   156780.0000  1533819    0.08%
 253033 148324   156843.4167    32   156906.0000   156780.0000  1533827    0.08%
 253034 148325   156843.4167    32   156906.0000   156780.0000  1533828    0.08%
 253035 148326   156843.4167    23   156906.0000   156780.0000  1533830    0.08%
 253036 148327   156885.0000    19   156906.0000   156780.0000  1533845    0.08%
 253037 148328   156894.0000    16   156906.0000   156780.0000  1533861    0.08%
 253038 148327    infeasible         156906.0000   156780.0000  1533861    0.08%
 253039 148326    infeasible         156906.0000   156780.0000  1533861    0.08%
 253040 148327   156780.0000    41   156906.0000   156780.0000  1533955    0.08%
Elapsed time = 58.38 sec. (54647.99 ticks, tree = 376.20 MB, solutions = 40)
 265036 157372   156780.0000    29   156906.0000   156780.0000  1643093    0.08%
 265037 157373   156780.0000    33   156906.0000   156780.0000  1643129    0.08%
 265038 157374   156780.0000    29   156906.0000   156780.0000  1643133    0.08%
 265039 157375   156858.8000    26   156906.0000   156780.0000  1643151    0.08%
 265040 157376   156858.8000    27   156906.0000   156780.0000  1643155    0.08%
 265041 157377   156858.8000    28   156906.0000   156780.0000  1643161    0.08%
 265042 157378   156858.8000    26   156906.0000   156780.0000  1643170    0.08%
 265043 157379   156858.8000    28   156906.0000   156780.0000  1643174    0.08%
 265044 157380   156858.8000    29   156906.0000   156780.0000  1643186    0.08%
 265045 157381   156858.8000    28   156906.0000   156780.0000  1643188    0.08%
Elapsed time = 61.28 sec. (58465.41 ticks, tree = 416.06 MB, solutions = 40)
 274777 163600   156878.5556    24   156906.0000   156780.0000  1747813    0.08%
 274778 163601   156878.5556    26   156906.0000   156780.0000  1747822    0.08%
 274779 163602   156878.5556    25   156906.0000   156780.0000  1747864    0.08%
 274780 163603   156878.5556    26   156906.0000   156780.0000  1747881    0.08%
 274781 163604   156878.5556    24   156906.0000   156780.0000  1747883    0.08%
 274782 163605   156878.5556    28   156906.0000   156780.0000  1747897    0.08%
 274783 163606   156878.5556    27   156906.0000   156780.0000  1747899    0.08%
 274784 163605    infeasible         156906.0000   156780.0000  1747899    0.08%
 274785 163606   156878.5556    26   156906.0000   156780.0000  1747900    0.08%
 274786 163607   156878.5556    26   156906.0000   156780.0000  1747901    0.08%
Elapsed time = 64.18 sec. (62284.07 ticks, tree = 445.27 MB, solutions = 40)
 284235 170045   156877.0000    24   156906.0000   156780.0000  1843799    0.08%
 284236 170046   156877.0000    20   156906.0000   156780.0000  1843801    0.08%
 284237 170045        cutoff         156906.0000   156780.0000  1843803    0.08%
 284238 170046   156878.4000    19   156906.0000   156780.0000  1843809    0.08%
 284239 170047   156878.4000    18   156906.0000   156780.0000  1843811    0.08%
 284240 170048   156878.4000    18   156906.0000   156780.0000  1843813    0.08%
 284241 170049   156878.4000    18   156906.0000   156780.0000  1843815    0.08%
 284242 170050   156878.4000    19   156906.0000   156780.0000  1843817    0.08%
 284243 170051   156878.4000    19   156906.0000   156780.0000  1843818    0.08%
 284244 170052   156878.4000    19   156906.0000   156780.0000  1843823    0.08%
Elapsed time = 67.07 sec. (66100.52 ticks, tree = 477.16 MB, solutions = 40)
 296928 178709   156832.0000    15   156906.0000   156780.0000  1949300    0.08%
 296929 178710   156832.0000    15   156906.0000   156780.0000  1949303    0.08%
 296930 178711   156832.0000    17   156906.0000   156780.0000  1949309    0.08%
 296931 178712   156832.0000    15   156906.0000   156780.0000  1949312    0.08%
 296932 178713   156832.0000    13   156906.0000   156780.0000  1949315    0.08%
 296933 178714   156832.0000    15   156906.0000   156780.0000  1949317    0.08%
 296934 178715   156832.0000    13   156906.0000   156780.0000  1949318    0.08%
 296935 178714    infeasible         156906.0000   156780.0000  1949318    0.08%
 296936 178713    infeasible         156906.0000   156780.0000  1949318    0.08%
 296937 178714   156780.0000    25   156906.0000   156780.0000  1949336    0.08%
Elapsed time = 70.26 sec. (69917.33 ticks, tree = 518.48 MB, solutions = 40)
 311020 188461   156780.0000    27   156906.0000   156780.0000  2047996    0.08%
 311021 188462   156780.0000    28   156906.0000   156780.0000  2047997    0.08%
 311022 188463   156780.0000    28   156906.0000   156780.0000  2047998    0.08%
 311023 188464   156780.0000    28   156906.0000   156780.0000  2048003    0.08%
 311024 188465   156780.0000    27   156906.0000   156780.0000  2048005    0.08%
 311025 188466   156780.0000    36   156906.0000   156780.0000  2048015    0.08%
 311026 188467   156780.0000    28   156906.0000   156780.0000  2048016    0.08%
 311027 188468   156780.0000    36   156906.0000   156780.0000  2048017    0.08%
 311028 188469   156780.0000    28   156906.0000   156780.0000  2048059    0.08%
 311029 188470   156780.0000    28   156906.0000   156780.0000  2048065    0.08%
Elapsed time = 74.38 sec. (73734.48 ticks, tree = 564.69 MB, solutions = 40)
 326388 199824   156886.0000    16   156906.0000   156780.0000  2143663    0.08%
 326389 199825   156886.0000    18   156906.0000   156780.0000  2143670    0.08%
 326390 199826   156886.0000    13   156906.0000   156780.0000  2143678    0.08%
 326391 199827   156886.0000    15   156906.0000   156780.0000  2143687    0.08%
 326392 199828   156886.0000    17   156906.0000   156780.0000  2143693    0.08%
 326393 199829   156886.0000    19   156906.0000   156780.0000  2143695    0.08%
 326394 199830   156902.9964    19   156906.0000   156780.0000  2143722    0.08%
 326395 199831   156902.9964    18   156906.0000   156780.0000  2143729    0.08%
 326396 199832   156902.9964    17   156906.0000   156780.0000  2143731    0.08%
 326397 199833   156902.9964    17   156906.0000   156780.0000  2143735    0.08%
Elapsed time = 78.54 sec. (77551.32 ticks, tree = 619.96 MB, solutions = 40)
 338223 208653   156795.0769    22   156906.0000   156780.0000  2257309    0.08%
 338224 208654   156795.0769    21   156906.0000   156780.0000  2257312    0.08%
 338225 208655   156795.0769    21   156906.0000   156780.0000  2257317    0.08%
 338226 208656   156795.0769    23   156906.0000   156780.0000  2257323    0.08%
 338227 208657   156795.0769    21   156906.0000   156780.0000  2257331    0.08%
 338228 208658   156795.0769    21   156906.0000   156780.0000  2257333    0.08%
 338229 208659   156795.0769    22   156906.0000   156780.0000  2257337    0.08%
 338230 208660   156827.5000    20   156906.0000   156780.0000  2257356    0.08%
 338231 208661   156827.5000    22   156906.0000   156780.0000  2257374    0.08%
 338232 208662   156827.5000    30   156906.0000   156780.0000  2257404    0.08%
Elapsed time = 83.68 sec. (81368.66 ticks, tree = 661.81 MB, solutions = 40)
 350414 217455   156780.0000    40   156906.0000   156780.0000  2374731    0.08%
 350415 217456   156780.0000    35   156906.0000   156780.0000  2374750    0.08%
 350416 217457   156780.0000    32   156906.0000   156780.0000  2374789    0.08%
 350417 217458   156780.0000    40   156906.0000   156780.0000  2374818    0.08%
 350418 217459   156780.0000    38   156906.0000   156780.0000  2374828    0.08%
 350419 217460   156780.0000    32   156906.0000   156780.0000  2374850    0.08%
 350420 217461   156801.0769    27   156906.0000   156780.0000  2374853    0.08%
 350421 217462   156780.0000    33   156906.0000   156780.0000  2374873    0.08%
 350422 217463   156801.0769    27   156906.0000   156780.0000  2374878    0.08%
 350423 217464   156801.0769    31   156906.0000   156780.0000  2374889    0.08%
Elapsed time = 88.77 sec. (85188.13 ticks, tree = 703.59 MB, solutions = 40)
*354883+201782                       156881.0000   156780.0000             0.06%
 356973 203425   156780.0000    23   156881.0000   156780.0000  2433072    0.06%
 356974 203426   156780.0000    22   156881.0000   156780.0000  2433089    0.06%
 356975 203427   156780.0000    22   156881.0000   156780.0000  2433100    0.06%
 356976 203428   156780.0000    22   156881.0000   156780.0000  2433101    0.06%
 356977 203429   156780.0000    21   156881.0000   156780.0000  2433111    0.06%
 356978 203430   156780.0000    21   156881.0000   156780.0000  2433113    0.06%
 356979 203431   156780.0000    21   156881.0000   156780.0000  2433114    0.06%
 356980 203432   156780.0000    31   156881.0000   156780.0000  2433132    0.06%
 356981 203431        cutoff         156881.0000   156780.0000  2433168    0.06%
 356982 203430        cutoff         156881.0000   156780.0000  2433184    0.06%
Elapsed time = 93.34 sec. (89005.78 ticks, tree = 664.76 MB, solutions = 41)
 366683 211221   156791.0769    39   156881.0000   156780.0000  2525045    0.06%
 366684 211222   156791.0769    31   156881.0000   156780.0000  2525046    0.06%
 366685 211223   156825.3333    22   156881.0000   156780.0000  2525107    0.06%
 366686 211224   156850.3830    27   156881.0000   156780.0000  2525113    0.06%
 366687 211225   156850.3830    28   156881.0000   156780.0000  2525121    0.06%
 366688 211225   156850.3830    26   156881.0000   156780.0000  2525130    0.06%
 366689 211225   156852.6682    27   156881.0000   156780.0000  2525138    0.06%
 366690 211225   156859.2337    26   156881.0000   156780.0000  2525139    0.06%
 366691 211224        cutoff         156881.0000   156780.0000  2525140    0.06%
 366692 211223        cutoff         156881.0000   156780.0000  2525152    0.06%
Elapsed time = 97.93 sec. (92825.94 ticks, tree = 701.70 MB, solutions = 41)

Cover cuts applied:  294
Mixed integer rounding cuts applied:  6
Gomory fractional cuts applied:  1

Root node processing (before b&c):
  Real time             =    0.08 sec. (90.98 ticks)
Sequential b&c:
  Real time             =   99.92 sec. (94411.56 ticks)
                          ------------
Total (root+branch&cut) =  100.00 sec. (94502.54 ticks)

Solution pool: 41 solutions saved.

MIP - Time limit exceeded, integer feasible:  Objective =  1.5688100000e+05
Current MIP best bound =  1.5678000000e+05 (gap = 101, 0.06%)
Solution time =  100.00 sec.  Iterations = 2582068  Nodes = 372445 (215481)
Deterministic time = 94502.55 ticks  (945.01 ticks/sec)


Incumbent solution written to file '/tmp/tmpXcve04.cplex.sol'.
